p cnf 7230 17
-3428 -3430 3939 -3941 0
1602 -3939 0
3428 -3939 0
3446 -3944 0
-1602 -3442 3940 0
3430 -3939 0
1602 -3941 0
-3446 3945 0
3944 -3945 0
-3444 3943 0
3942 -3943 0
3444 -3942 0
3446 -3947 0
-3940 3941 0
3442 -3941 0
-3938 3939 0
3938 -3939 0
